NAME 
ROWS
 N  OBJ
 L  R0      
 E  R1      
 E  R2      
 E  R3      
 E  R4      
 E  R5      
 E  R6      
 E  R7      
 E  R8      
 E  R9      
 E  R10     
 E  R11     
 E  R12     
 E  R13     
 E  R14     
 E  R15     
 E  R16     
 E  R17     
 E  R18     
 E  R19     
 E  R20     
 E  R21     
 E  R22     
 E  R23     
 E  R24     
 E  R25     
 E  R26     
 E  R27     
 E  R28     
 E  R29     
 E  R30     
COLUMNS
    MARKER    'MARKER'                 'INTORG'
    I0(3)     OBJ       166
    I0(3)     R0        73
    I0(3)     R1        5
    I0(3)     R30       1
    I1(3)     OBJ       95
    I1(3)     R0        -6
    I1(3)     R2        19
    I1(3)     R30       1
    I2(3)     OBJ       -180
    I2(3)     R0        128
    I2(3)     R3        14
    I2(3)     R30       1
    I3(3)     OBJ       -148
    I3(3)     R0        74
    I3(3)     R4        4
    I3(3)     R30       1
    I4(3)     OBJ       2
    I4(3)     R0        -84
    I4(3)     R5        17
    I4(3)     R30       1
    I5(3)     OBJ       -83
    I5(3)     R0        166
    I5(3)     R6        14
    I5(3)     R30       1
    I6(3)     OBJ       58
    I6(3)     R0        -20
    I6(3)     R7        1
    I6(3)     R30       1
    I7(3)     OBJ       138
    I7(3)     R0        40
    I7(3)     R8        1
    I7(3)     R30       1
    I8(3)     OBJ       37
    I8(3)     R0        96
    I8(3)     R9        16
    I8(3)     R30       1
    I9(3)     OBJ       77
    I9(3)     R0        -120
    I9(3)     R10       17
    I9(3)     R30       1
    I10(2)    OBJ       136
    I10(2)    R11       4
    I10(2)    R30       1
    I11(3)    OBJ       -28
    I11(3)    R0        -40
    I11(3)    R12       5
    I11(3)    R30       1
    I12(3)    OBJ       27
    I12(3)    R0        117
    I12(3)    R13       18
    I12(3)    R30       1
    I13(3)    OBJ       89
    I13(3)    R0        81
    I13(3)    R14       5
    I13(3)    R30       1
    I14(3)    OBJ       157
    I14(3)    R0        -54
    I14(3)    R15       5
    I14(3)    R30       1
    I15(3)    OBJ       154
    I15(3)    R0        183
    I15(3)    R16       4
    I15(3)    R30       1
    I16(2)    OBJ       62
    I16(2)    R0        198
    I16(2)    R30       1
    I17(3)    OBJ       -143
    I17(3)    R0        -94
    I17(3)    R18       9
    I17(3)    R30       1
    I18(3)    OBJ       63
    I18(3)    R0        141
    I18(3)    R19       9
    I18(3)    R30       1
    I19(3)    OBJ       -6
    I19(3)    R0        -174
    I19(3)    R20       5
    I19(3)    R30       1
    I20(3)    OBJ       -195
    I20(3)    R0        73
    I20(3)    R21       16
    I20(3)    R30       1
    I21(3)    OBJ       -75
    I21(3)    R0        73
    I21(3)    R22       14
    I21(3)    R30       1
    I22(3)    OBJ       144
    I22(3)    R0        -50
    I22(3)    R23       12
    I22(3)    R30       1
    I23(3)    OBJ       -182
    I23(3)    R0        -119
    I23(3)    R24       11
    I23(3)    R30       1
    I24(2)    OBJ       -109
    I24(2)    R0        91
    I24(2)    R30       1
    I25(3)    OBJ       -27
    I25(3)    R0        -59
    I25(3)    R26       14
    I25(3)    R30       1
    I26(3)    OBJ       187
    I26(3)    R0        130
    I26(3)    R27       7
    I26(3)    R30       1
    I27(3)    OBJ       3
    I27(3)    R0        41
    I27(3)    R28       6
    I27(3)    R30       1
    MARKER    'MARKER'                 'INTEND'
    C28(30)   R0        4
    C28(30)   R1        6
    C28(30)   R2        2
    C28(30)   R3        13
    C28(30)   R4        11
    C28(30)   R5        16
    C28(30)   R6        19
    C28(30)   R7        8
    C28(30)   R8        1
    C28(30)   R9        6
    C28(30)   R10       8
    C28(30)   R11       5
    C28(30)   R12       4
    C28(30)   R13       17
    C28(30)   R14       7
    C28(30)   R15       9
    C28(30)   R16       6
    C28(30)   R17       4
    C28(30)   R18       8
    C28(30)   R19       1
    C28(30)   R20       17
    C28(30)   R21       19
    C28(30)   R22       14
    C28(30)   R23       8
    C28(30)   R24       7
    C28(30)   R25       5
    C28(30)   R26       19
    C28(30)   R27       3
    C28(30)   R28       6
    C28(30)   R29       10
    C29(28)   OBJ       3
    C29(28)   R0        -4
    C29(28)   R1        8
    C29(28)   R2        7
    C29(28)   R3        17
    C29(28)   R4        15
    C29(28)   R5        8
    C29(28)   R6        6
    C29(28)   R7        19
    C29(28)   R8        9
    C29(28)   R9        1
    C29(28)   R10       -1
    C29(28)   R11       8
    C29(28)   R12       2
    C29(28)   R13       -1
    C29(28)   R14       7
    C29(28)   R15       1
    C29(28)   R16       11
    C29(28)   R17       4
    C29(28)   R18       5
    C29(28)   R19       17
    C29(28)   R20       5
    C29(28)   R21       19
    C29(28)   R24       14
    C29(28)   R25       17
    C29(28)   R26       19
    C29(28)   R27       9
    C29(28)   R28       10
    C29(28)   R29       19
    C30(1)    R1        1
    C31(1)    R2        1
    C32(1)    R3        1
    C33(1)    R4        1
    C34(1)    R5        1
    C35(1)    R6        1
    C36(1)    R7        1
    C37(1)    R8        1
    C38(1)    R9        1
    C39(1)    R10       1
    C40(1)    R11       1
    C41(1)    R12       1
    C42(1)    R13       1
    C43(1)    R14       1
    C44(1)    R15       1
    C45(1)    R16       1
    C46(1)    R17       1
    C47(1)    R18       1
    C48(1)    R19       1
    C49(1)    R20       1
    C50(1)    R21       1
    C51(1)    R22       1
    C52(1)    R23       1
    C53(1)    R24       1
    C54(1)    R25       1
    C55(1)    R26       1
    C56(1)    R27       1
    C57(1)    R28       1
    C58(1)    R29       1
    C59(1)    R30       1
RHS
    RHS1      R0        352
    RHS1      R1        76
    RHS1      R2        89
    RHS1      R3        77
    RHS1      R4        55
    RHS1      R5        50
    RHS1      R6        97
    RHS1      R7        57
    RHS1      R8        54
    RHS1      R9        91
    RHS1      R10       79
    RHS1      R11       52
    RHS1      R12       70
    RHS1      R13       61
    RHS1      R14       74
    RHS1      R15       75
    RHS1      R16       71
    RHS1      R17       78
    RHS1      R18       61
    RHS1      R19       72
    RHS1      R20       91
    RHS1      R21       94
    RHS1      R22       68
    RHS1      R23       88
    RHS1      R24       82
    RHS1      R25       84
    RHS1      R26       77
    RHS1      R27       54
    RHS1      R28       60
    RHS1      R29       67
    RHS1      R30       9
BOUNDS
 UP BND1      I0(3)     1
 UP BND1      I1(3)     1
 UP BND1      I2(3)     1
 UP BND1      I3(3)     1
 UP BND1      I4(3)     1
 UP BND1      I5(3)     1
 UP BND1      I6(3)     1
 UP BND1      I7(3)     1
 UP BND1      I8(3)     1
 UP BND1      I9(3)     1
 UP BND1      I10(2)    1
 UP BND1      I11(3)    1
 UP BND1      I12(3)    1
 UP BND1      I13(3)    1
 UP BND1      I14(3)    1
 UP BND1      I15(3)    1
 UP BND1      I16(2)    1
 UP BND1      I17(3)    1
 UP BND1      I18(3)    1
 UP BND1      I19(3)    1
 UP BND1      I20(3)    1
 UP BND1      I21(3)    1
 UP BND1      I22(3)    1
 UP BND1      I23(3)    1
 UP BND1      I24(2)    1
 UP BND1      I25(3)    1
 UP BND1      I26(3)    1
 UP BND1      I27(3)    1
ENDATA
